NAME: random75
TYPE: TSP
DIMENSION: 75
EDGE_WEIGHT_TYPE: EXPLICIT
EDGE_WEIGHT_FORMAT: FULL_MATRIX
EDGE_WEIGHT_SECTION
0 1210 1210 1210 1210 1210 1210 39 34 1210 1210 1210 1210 1210 38 1210 1210 1210 1210 1210 1210 38 1210 20 1210 39 1210 1210 29 1210 1210 1210 1210 1210 1210 1210 37 23 1210 1210 22 1210 2 18 1210 1210 28 40 1210 47 1210 28 1210 1210 45 34 1210 14 1210 1210 1210 34 1210 1210 21 1210 1210 1210 1210 1210 1210 1210 19 1210 1210
1210 0 1210 1210 51 1210 26 1210 1210 1210 1210 1210 15 26 1210 1210 1210 1210 1210 21 1210 1210 1210 1210 1210 1210 1210 1210 1210 1 1210 1210 40 1210 1210 1210 1210 1210 1210 1210 1210 1210 1210 1210 17 1210 1210 1210 1210 1210 1210 1210 1210 1210 1210 1210 1210 1210 1210 1210 1210 1210 1210 1210 1210 33 22 9 1210 1210 1210 1210 1210 1210 26
1210 1210 0 1210 1210 13 1210 1210 1210 1210 1210 1210 1210 18 1210 1210 15 1210 1210 1210 1210 1210 29 1210 1210 1210 13 1210 1210 1210 13 26 1210 14 10 21 24 1210 1210 1210 1210 1210 1210 1210 1210 17 1210 1210 6 1210 15 21 23 1210 1210 1210 1210 1210 30 15 1210 1210 39 1210 35 1210 1210 34 8 1210 27 23 1210 1210 25
1210 1210 1210 0 37 1210 1210 1210 1210 11 1210 34 1210 1210 1210 5 1210 37 28 1210 21 1210 1210 1210 1210 1210 1210 32 1210 1210 1210 33 1210 1210 1210 31 35 1210 28 10 1210 1210 1210 1210 1210 1210 1210 1210 1210 1210 36 1210 1210 22 1210 1210 12 1210 1210 37 15 1210 12 21 1210 1210 1210 1210 1210 1210 1210 1210 1210 26 1210
1210 51 1210 37 0 1210 1210 1210 1210 28 1210 1210 38 1210 1210 31 1210 1210 29 1210 39 1210 1210 1210 1210 1210 1210 18 1210 51 1210 24 1210 1210 1210 46 1210 1210 1210 34 1210 20 1210 1210 35 33 1210 1210 1210 1210 1210 1210 1210 1210 1210 1210 46 1210 1210 35 49 1210 29 1210 1210 26 1210 48 1210 1210 1210 29 1210 1210 1210
1210 1210 13 1210 1210 0 1210 1210 1210 1210 1210 1210 1210 13 1210 1210 15 1210 1210 31 1210 1210 1210 1210 1210 1210 23 21 1210 1210 5 16 1210 24 14 1210 1210 1210 1210 1210 1210 18 1210 1210 30 8 1210 1210 18 1210 20 1210 31 1210 1210 1210 1210 1210 1210 10 1210 1210 34 1210 1210 13 1210 26 13 1210 1210 10 1210 1210 24
1210 26 1210 1210 1210 1210 0 1210 1210 1210 53 1210 1210 16 1210 1210 14 1210 1210 6 1210 1210 26 1210 36 1210 21 1210 1210 28 1210 1210 14 1210 1210 1210 1210 1210 1210 1210 1210 1210 1210 1210 1210 1210 1210 1210 1210 1210 1210 1210 17 1210 1210 1210 1210 1210 1210 1210 1210 1210 1210 1210 1210 1210 8 19 1210 25 1210 34 1210 1210 4
39 1210 1210 1210 1210 1210 1210 0 18 1210 1210 3 1210 1210 1210 1210 1210 20 1210 1210 54 1210 1210 19 1210 25 1210 1210 16 1210 1210 1210 1210 1210 1210 33 30 1210 13 1210 36 1210 1210 22 1210 1210 13 16 1210 28 1210 1210 1210 16 27 1210 24 1210 1210 1210 36 1210 1210 15 1210 1210 1210 1210 1210 1210 1210 1210 1210 10 1210
34 1210 1210 1210 1210 1210 1210 18 0 1210 1210 20 1210 1210 1210 1210 1210 28 1210 1210 1210 1210 1210 22 1210 8 1210 1210 6 1210 1210 1210 1210 1210 1210 1210 1210 1210 1210 1210 1210 1210 36 24 1210 1210 22 6 1210 14 1210 1210 1210 1210 13 68 1210 49 1210 1210 1210 1210 1210 1210 1210 1210 1210 1210 1210 1210 1210 1210 1210 1210 1210
1210 1210 1210 11 28 1210 1210 1210 1210 0 1210 1210 1210 1210 1210 6 1210 46 18 1210 16 1210 1210 1210 1210 1210 1210 29 1210 1210 1210 32 1210 1210 1210 37 1210 1210 1210 6 1210 36 1210 1210 59 1210 1210 1210 1210 1210 1210 1210 1210 1210 1210 1210 23 1210 1210 38 21 1210 14 1210 1210 1210 1210 1210 1210 1210 1210 1210 1210 1210 1210
1210 1210 1210 1210 1210 1210 53 1210 1210 1210 0 1210 1210 1210 8 1210 1210 1210 1210 1210 1210 16 27 1210 17 1210 1210 1210 1210 1210 1210 1210 39 40 1210 1210 1210 21 1210 1210 1210 1210 1210 1210 1210 1210 1210 1210 1210 1210 1210 41 37 1210 1210 17 1210 29 21 1210 1210 11 1210 1210 28 1210 59 1210 1210 28 27 1210 1210 1210 1210
1210 1210 1210 34 1210 1210 1210 3 20 1210 1210 0 1210 1210 1210 1210 1210 19 1210 1210 52 1210 1210 21 1210 1210 1210 1210 18 1210 1210 1210 1210 1210 1210 33 29 1210 11 43 37 1210 1210 24 1210 1210 14 18 1210 29 38 42 1210 14 29 1210 22 1210 1210 1210 33 1210 1210 13 1210 1210 1210 1210 1210 1210 1210 1210 1210 8 1210
1210 15 1210 1210 38 1210 1210 1210 1210 1210 1210 1210 0 29 1210 1210 1210 1210 1210 33 1210 1210 1210 1210 1210 1210 1210 34 1210 14 1210 35 1210 1210 1210 1210 1210 1210 1210 1210 1210 27 1210 1210 3 1210 1210 1210 1210 1210 1210 1210 1210 1210 1210 1210 1210 1210 1210 1210 1210 1210 55 1210 1210 25 34 17 1210 1210 1210 26 1210 1210 1210
1210 26 18 1210 1210 13 16 1210 1210 1210 1210 1210 29 0 1210 1210 6 1210 1210 18 1210 1210 1210 1210 1210 1210 19 1210 1210 1210 18 28 24 21 10 1210 1210 1210 1210 1210 1210 27 1210 1210 27 21 1210 1210 1210 1210 1210 1210 23 1210 1210 1210 1210 1210 1210 23 1210 1210 1210 1210 1210 21 21 16 11 34 1210 19 1210 1210 12
38 1210 1210 1210 1210 1210 1210 1210 1210 1210 8 1210 1210 1210 0 1210 1210 1210 1210 1210 1210 20 1210 1210 24 1210 1210 1210 1210 1210 1210 1210 1210 1210 1210 1210 1210 16 1210 1210 1210 1210 1210 1210 1210 1210 1210 1210 1210 1210 1210 1210 1210 1210 1210 9 1210 24 24 1210 1210 4 1210 1210 25 1210 66 1210 1210 1210 1210 1210 1210 1210 1210
1210 1210 1210 5 31 1210 1210 1210 1210 6 1210 1210 1210 1210 1210 0 1210 42 24 1210 21 1210 1210 1210 1210 1210 1210 28 1210 1210 1210 30 1210 1210 1210 32 1210 1210 33 9 1210 36 1210 1210 1210 1210 1210 1210 1210 1210 1210 1210 1210 26 1210 1210 17 1210 1210 35 19 1210 10 1210 1210 1210 1210 1210 1210 1210 1210 1210 1210 1210 1210
1210 1210 15 1210 1210 15 14 1210 1210 1210 1210 1210 1210 6 1210 1210 0 1210 1210 18 1210 1210 27 1210 1210 1210 13 1210 1210 1210 1210 1210 19 15 6 1210 1210 1210 1210 1210 1210 1210 1210 1210 1210 1210 1210 1210 21 1210 1210 1210 17 1210 1210 1210 1210 1210 34 1210 1210 1210 1210 1210 1210 26 21 21 7 28 27 23 1210 1210 10
1210 1210 1210 37 1210 1210 1210 20 28 46 1210 19 1210 1210 1210 42 1210 0 59 1210 47 1210 1210 39 1210 31 1210 1210 31 1210 1210 1210 1210 1210 1210 1210 46 1210 11 43 1210 1210 1210 1210 1210 1210 33 23 1210 28 1210 1210 1210 26 29 92 29 1210 1210 1210 28 1210 46 24 1210 1210 1210 1210 1210 1210 1210 1210 1210 19 1210
1210 1210 1210 28 29 1210 1210 1210 1210 18 1210 1210 1210 1210 1210 24 1210 59 0 1210 13 1210 1210 1210 1210 1210 1210 39 1210 1210 1210 44 1210 1210 1210 1210 1210 1210 54 18 1210 45 1210 1210 1210 1210 1210 1210 1210 1210 1210 1210 1210 1210 1210 1210 40 1210 1210 1210 31 1210 31 1210 1210 1210 1210 1210 1210 1210 1210 1210 1210 1210 1210
1210 21 1210 1210 1210 31 6 1210 1210 1210 1210 1210 33 18 1210 1210 18 1210 1210 0 1210 1210 1210 1210 42 1210 1210 1210 1210 22 1210 1210 20 1210 23 1210 1210 1210 1210 1210 1210 1210 1210 1210 1210 1210 1210 1210 1210 1210 1210 1210 23 1210 1210 1210 1210 1210 1210 1210 1210 1210 1210 1210 1210 37 3 16 1210 31 1210 35 1210 1210 9
1210 1210 1210 21 39 1210 1210 54 1210 16 1210 52 1210 1210 1210 21 1210 47 13 1210 0 1210 1210 1210 1210 1210 1210 1210 1210 1210 1210 1210 1210 1210 1210 1210 1210 1210 43 12 1210 1210 1210 1210 1210 1210 1210 1210 1210 1210 1210 1210 1210 1210 1210 1210 32 1210 1210 1210 19 1210 30 40 1210 1210 1210 1210 1210 1210 1210 1210 1210 44 1210
38 1210 1210 1210 1210 1210 1210 1210 1210 1210 16 1210 1210 1210 20 1210 1210 1210 1210 1210 1210 0 15 1210 11 1210 1210 1210 1210 1210 1210 1210 27 24 1210 1210 1210 18 1210 1210 31 1210 36 1210 1210 1210 1210 1210 33 1210 1210 26 24 1210 1210 27 1210 25 5 1210 1210 19 1210 1210 18 1210 48 1210 1210 17 12 1210 20 1210 1210
1210 1210 29 1210 1210 1210 26 1210 1210 1210 27 1210 1210 1210 1210 1210 27 1210 1210 1210 1210 15 0 1210 11 1210 16 1210 1210 1210 1210 1210 13 15 1210 1210 1210 1210 1210 1210 1210 1210 1210 1210 1210 1210 1210 1210 1210 1210 1210 30 10 1210 1210 1210 1210 1210 13 1210 1210 1210 1210 1210 29 1210 33 1210 1210 4 4 1210 1210 1210 27
20 1210 1210 1210 1210 1210 1210 19 22 1210 1210 21 1210 1210 1210 1210 1210 39 1210 1210 1210 1210 1210 0 1210 30 1210 1210 16 1210 1210 1210 1210 1210 1210 1210 24 1210 1210 1210 19 1210 20 3 1210 1210 8 26 1210 1210 1210 26 1210 27 1210 53 1210 31 1210 1210 1210 1210 1210 1210 1210 1210 1210 1210 1210 1210 1210 1210 29 1210 1210
1210 1210 1210 1210 1210 1210 36 1210 1210 1210 17 1210 1210 1210 24 1210 1210 1210 1210 42 1210 11 11 1210 0 1210 26 1210 1210 1210 1210 1210 22 25 1210 1210 1210 28 1210 1210 1210 1210 1210 1210 1210 1210 1210 1210 38 1210 1210 35 21 1210 1210 32 1210 35 12 1210 1210 25 1210 1210 28 1210 42 1210 1210 11 12 1210 31 1210 37
39 1210 1210 1210 1210 1210 1210 25 8 1210 1210 1210 1210 1210 1210 1210 1210 31 1210 1210 1210 1210 1210 30 1210 0 1210 1210 14 1210 1210 1210 1210 1210 1210 1210 1210 62 1210 1210 49 1210 41 32 1210 1210 30 10 1210 8 1210 1210 1210 1210 6 73 1210 54 1210 1210 1210 73 1210 1210 58 1210 1210 1210 1210 1210 1210 1210 56 1210 1210
1210 1210 13 1210 1210 23 21 1210 1210 1210 1210 1210 1210 19 1210 1210 13 1210 1210 1210 1210 1210 16 1210 26 1210 0 1210 1210 1210 24 1210 16 2 10 1210 1210 1210 1210 1210 1210 1210 1210 1210 1210 28 1210 1210 15 1210 27 23 10 1210 1210 1210 1210 1210 21 28 1210 1210 1210 1210 1210 1210 1210 34 10 19 15 33 1210 1210 19
1210 1210 1210 32 18 21 1210 1210 1210 29 1210 1210 34 1210 1210 28 1210 1210 39 1210 1210 1210 1210 1210 1210 1210 1210 0 1210 1210 19 6 1210 1210 1210 29 1210 1210 1210 35 1210 7 1210 1210 32 15 1210 1210 1210 1210 28 1210 1210 1210 1210 1210 37 1210 1210 17 1210 1210 21 1210 1210 13 1210 38 1210 1210 1210 14 1210 1210 1210
29 1210 1210 1210 1210 1210 1210 16 6 1210 1210 18 1210 1210 1210 1210 1210 31 1210 1210 1210 1210 1210 16 1210 14 1210 1210 0 1210 1210 1210 1210 1210 1210 1210 37 51 28 1210 35 1210 30 18 1210 1210 17 11 1210 21 1210 1210 1210 31 19 63 1210 43 1210 1210 1210 1210 1210 1210 1210 1210 1210 1210 1210 1210 1210 1210 43 26 1210
1210 1 1210 1210 51 1210 28 1210 1210 1210 1210 1210 14 1210 1210 1210 1210 1210 1210 22 1210 1210 1210 1210 1210 1210 1210 1210 1210 0 1210 1210 1210 1210 1210 1210 1210 1210 1210 1210 1210 37 1210 1210 16 1210 1210 1210 1210 1210 1210 1210 1210 1210 1210 1210 1210 1210 1210 1210 1210 1210 1210 1210 1210 33 23 10 1210 1210 1210 33 1210 1210 27
1210 1210 13 1210 1210 5 1210 1210 1210 1210 1210 1210 1210 18 1210 1210 1210 1210 1210 1210 1210 1210 1210 1210 1210 1210 24 19 1210 1210 0 13 1210 26 17 20 1210 1210 1210 1210 1210 18 1210 1210 1210 4 1210 1210 16 1210 16 31 1210 1210 1210 1210 1210 1210 1210 5 1210 1210 30 1210 1210 1210 1210 32 15 1210 1210 12 1210 1210 1210
1210 1210 26 33 24 16 1210 1210 1210 32 1210 1210 35 28 1210 30 1210 1210 44 1210 1210 1210 1210 1210 1210 1210 1210 6 1210 1210 13 0 1210 1210 1210 25 31 1210 1210 1210 1210 8 1210 1210 33 10 1210 1210 28 1210 23 1210 1210 40 1210 1210 36 1210 1210 11 1210 1210 21 1210 1210 11 1210 37 28 1210 1210 11 1210 1210 1210
1210 40 1210 1210 1210 1210 14 1210 1210 1210 39 1210 1210 24 1210 1210 19 1210 1210 20 1210 27 13 1210 22 1210 16 1210 1210 1210 1210 1210 0 16 21 1210 1210 1210 1210 1210 1210 1210 1210 1210 1210 1210 1210 1210 1210 1210 1210 1210 6 1210 1210 1210 1210 1210 1210 1210 1210 1210 1210 1210 1210 1210 21 33 1210 11 16 1210 1210 1210 15
1210 1210 14 1210 1210 24 1210 1210 1210 1210 40 1210 1210 21 1210 1210 15 1210 1210 1210 1210 24 15 1210 25 1210 2 1210 1210 1210 26 1210 16 0 12 33 33 37 1210 1210 29 1210 1210 1210 1210 30 1210 1210 15 1210 27 22 10 1210 1210 1210 1210 41 19 29 1210 1210 1210 1210 30 1210 1210 1210 12 18 13 1210 31 1210 20
1210 1210 10 1210 1210 14 1210 1210 1210 1210 1210 1210 1210 10 1210 1210 6 1210 1210 23 1210 1210 1210 1210 1210 1210 10 1210 1210 1210 17 1210 21 12 0 1210 1210 1210 1210 1210 1210 1210 1210 1210 1210 21 1210 1210 15 1210 1210 1210 17 1210 1210 1210 1210 1210 1210 1210 1210 1210 1210 1210 1210 1210 1210 26 2 1210 25 23 1210 1210 15
1210 1210 21 31 46 1210 1210 33 1210 37 1210 33 1210 1210 1210 32 1210 1210 1210 1210 1210 1210 1210 1210 1210 1210 1210 29 1210 1210 20 25 1210 33 1210 0 6 1210 37 41 23 33 1210 30 1210 20 26 1210 18 1210 6 23 1210 22 1210 1210 25 1210 1210 17 43 1210 24 25 1210 1210 1210 1210 1210 1210 1210 31 38 29 1210
37 1210 24 35 1210 1210 1210 30 1210 1210 1210 29 1210 1210 1210 1210 1210 46 1210 1210 1210 1210 1210 24 1210 1210 1210 1210 37 1210 1210 31 1210 33 1210 6 0 1210 35 1210 18 1210 36 24 1210 1210 21 1210 19 1210 10 19 1210 21 1210 1210 26 41 41 22 1210 1210 28 24 34 1210 1210 1210 1210 1210 1210 1210 33 27 1210
23 1210 1210 1210 1210 1210 1210 1210 1210 1210 21 1210 1210 1210 16 1210 1210 1210 1210 1210 1210 18 1210 1210 28 62 1210 1210 51 1210 1210 1210 1210 37 1210 1210 1210 0 1210 1210 27 1210 21 36 1210 1210 1210 1210 1210 1210 1210 26 1210 1210 68 16 1210 8 20 1210 1210 13 1210 1210 10 1210 65 1210 1210 1210 29 1210 11 1210 1210
1210 1210 1210 28 1210 1210 1210 13 1210 1210 1210 11 1210 1210 1210 33 1210 11 54 1210 43 1210 1210 1210 1210 1210 1210 1210 28 1210 1210 1210 1210 1210 1210 37 35 1210 0 36 1210 1210 1210 1210 1210 1210 25 24 1210 33 1210 1210 1210 15 1210 1210 18 1210 1210 1210 24 1210 36 12 1210 1210 1210 1210 1210 1210 1210 1210 1210 8 1210
1210 1210 1210 10 34 1210 1210 1210 1210 6 1210 43 1210 1210 1210 9 1210 43 18 1210 12 1210 1210 1210 1210 1210 1210 35 1210 1210 1210 1210 1210 1210 1210 41 1210 1210 36 0 1210 1210 1210 1210 1210 1210 1210 1210 1210 1210 1210 1210 1210 1210 1210 1210 22 1210 1210 1210 16 1210 18 31 1210 1210 1210 1210 1210 1210 1210 1210 1210 1210 1210
22 1210 1210 1210 1210 1210 1210 36 1210 1210 1210 37 1210 1210 1210 1210 1210 1210 1210 1210 1210 31 1210 19 1210 49 1210 1210 35 1210 1210 1210 1210 29 1210 23 18 27 1210 1210 0 1210 20 18 1210 1210 23 1210 22 1210 22 7 1210 35 1210 43 42 23 28 34 1210 1210 1210 1210 17 1210 1210 1210 1210 1210 1210 1210 16 38 1210
1210 1210 1210 1210 20 18 1210 1210 1210 36 1210 1210 27 27 1210 36 1210 1210 45 1210 1210 1210 1210 1210 1210 1210 1210 7 1210 37 18 8 1210 1210 1210 33 1210 1210 1210 1210 1210 0 1210 1210 25 15 1210 1210 1210 1210 1210 1210 1210 1210 1210 1210 1210 1210 1210 18 1210 1210 28 1210 1210 6 1210 31 1210 1210 1210 8 1210 1210 38
2 1210 1210 1210 1210 1210 1210 1210 36 1210 1210 1210 1210 1210 1210 1210 1210 1210 1210 1210 1210 36 1210 20 1210 41 1210 1210 30 1210 1210 1210 1210 1210 1210 1210 36 21 1210 1210 20 1210 0 18 1210 1210 28 1210 1210 1210 42 26 1210 46 47 34 1210 13 35 1210 1210 33 1210 1210 18 1210 1210 1210 1210 1210 1210 1210 16 1210 1210
18 1210 1210 1210 1210 1210 1210 22 24 1210 1210 24 1210 1210 1210 1210 1210 1210 1210 1210 1210 1210 1210 3 1210 32 1210 1210 18 1210 1210 1210 1210 1210 1210 30 24 36 1210 1210 18 1210 18 0 1210 1210 10 28 1210 1210 33 25 1210 29 37 50 1210 29 1210 1210 1210 1210 1210 1210 29 1210 1210 1210 1210 1210 1210 1210 27 1210 1210
1210 17 1210 1210 35 30 1210 1210 1210 59 1210 1210 3 27 1210 1210 1210 1210 1210 1210 1210 1210 1210 1210 1210 1210 1210 32 1210 16 1210 33 1210 1210 1210 1210 1210 1210 1210 1210 1210 25 1210 1210 0 34 1210 1210 1210 1210 1210 1210 1210 1210 1210 1210 1210 1210 1210 1210 1210 1210 52 1210 1210 22 35 17 1210 1210 1210 24 1210 1210 34
1210 1210 17 1210 33 8 1210 1210 1210 1210 1210 1210 1210 21 1210 1210 1210 1210 1210 1210 1210 1210 1210 1210 1210 1210 28 15 1210 1210 4 10 1210 30 21 20 1210 1210 1210 1210 1210 15 1210 1210 34 0 1210 1210 19 1210 16 1210 1210 1210 1210 1210 38 1210 1210 3 1210 1210 26 1210 1210 13 1210 33 19 1210 1210 11 1210 1210 32
28 1210 1210 1210 1210 1210 1210 13 22 1210 1210 14 1210 1210 1210 1210 1210 33 1210 1210 1210 1210 1210 8 1210 30 1210 1210 17 1210 1210 1210 1210 1210 1210 26 21 1210 25 1210 23 1210 28 10 1210 1210 0 24 38 36 30 29 1210 19 1210 1210 28 38 1210 43 44 1210 40 20 37 1210 1210 1210 1210 1210 1210 1210 35 18 1210
40 1210 1210 1210 1210 1210 1210 16 6 1210 1210 18 1210 1210 1210 1210 1210 23 1210 1210 1210 1210 1210 26 1210 10 1210 1210 11 1210 1210 1210 1210 1210 1210 1210 1210 1210 24 1210 1210 1210 1210 28 1210 1210 24 0 1210 12 1210 1210 1210 32 11 74 1210 54 1210 1210 48 1210 1210 1210 1210 1210 1210 1210 1210 1210 1210 1210 1210 25 1210
1210 1210 6 1210 1210 18 1210 1210 1210 1210 1210 1210 1210 1210 1210 1210 21 1210 1210 1210 1210 33 1210 1210 38 1210 15 1210 1210 1210 16 28 1210 15 15 18 19 1210 1210 1210 22 1210 1210 1210 1210 19 38 1210 0 1210 12 16 26 40 1210 1210 43 1210 29 17 1210 1210 38 1210 31 1210 1210 1210 13 1210 27 1210 31 1210 1210
47 1210 1210 1210 1210 1210 1210 28 14 1210 1210 29 1210 1210 1210 1210 1210 28 1210 1210 1210 1210 1210 1210 1210 8 1210 1210 21 1210 1210 1210 1210 1210 1210 1210 1210 1210 33 1210 1210 1210 1210 1210 1210 1210 36 12 1210 0 1210 1210 1210 1210 2 81 1210 1210 1210 1210 1210 1210 1210 1210 1210 1210 1210 1210 1210 1210 1210 1210 1210 1210 1210
1210 1210 15 36 1210 20 1210 1210 1210 1210 1210 38 1210 1210 1210 1210 1210 1210 1210 1210 1210 1210 1210 1210 1210 1210 27 28 1210 1210 16 23 1210 27 1210 6 10 1210 1210 1210 22 1210 42 33 1210 16 30 1210 12 1210 0 20 1210 28 1210 1210 31 1210 39 13 1210 1210 27 31 36 1210 1210 1210 1210 1210 38 1210 36 1210 1210
28 1210 21 1210 1210 1210 1210 1210 1210 1210 41 42 1210 1210 1210 1210 1210 1210 1210 1210 1210 26 30 26 35 1210 23 1210 1210 1210 31 1210 1210 22 1210 23 19 26 1210 1210 7 1210 26 25 1210 1210 29 1210 16 1210 20 0 31 39 1210 43 45 25 22 31 1210 37 46 1210 16 1210 1210 1210 28 1210 26 1210 16 1210 1210
1210 1210 23 1210 1210 31 17 1210 1210 1210 37 1210 1210 23 1210 1210 17 1210 1210 23 1210 24 10 1210 21 1210 10 1210 1210 1210 1210 1210 6 10 17 1210 1210 1210 1210 1210 1210 1210 1210 1210 1210 1210 1210 1210 26 1210 1210 31 0 1210 1210 1210 1210 1210 21 37 1210 1210 1210 1210 35 1210 24 35 18 11 12 40 1210 1210 17
1210 1210 1210 22 1210 1210 1210 16 1210 1210 1210 14 1210 1210 1210 26 1210 26 1210 1210 1210 1210 1210 27 1210 1210 1210 1210 31 1210 1210 40 1210 1210 1210 22 21 1210 15 1210 35 1210 46 29 1210 1210 19 32 40 1210 28 39 1210 0 1210 1210 9 1210 1210 37 26 1210 24 3 1210 1210 1210 1210 1210 1210 1210 1210 50 8 1210
45 1210 1210 1210 1210 1210 1210 27 13 1210 1210 29 1210 1210 1210 1210 1210 29 1210 1210 1210 1210 1210 1210 1210 6 1210 1210 19 1210 1210 1210 1210 1210 1210 1210 1210 68 1210 1210 1210 1210 47 37 1210 1210 1210 11 1210 2 1210 1210 1210 1210 0 78 1210 60 1210 1210 1210 1210 1210 1210 1210 1210 1210 1210 1210 1210 1210 1210 1210 1210 1210
34 1210 1210 1210 1210 1210 1210 1210 68 1210 17 1210 1210 1210 9 1210 1210 92 1210 1210 1210 27 1210 53 32 73 1210 1210 63 1210 1210 1210 1210 1210 1210 1210 1210 16 1210 1210 43 1210 34 50 1210 1210 1210 74 1210 81 1210 43 1210 1210 78 0 1210 21 30 1210 1210 8 1210 1210 27 1210 1210 1210 1210 1210 1210 1210 28 1210 1210
1210 1210 1210 12 46 1210 1210 24 1210 23 1210 22 1210 1210 1210 17 1210 29 40 1210 32 1210 1210 1210 1210 1210 1210 37 1210 1210 1210 36 1210 1210 1210 25 26 1210 18 22 42 1210 1210 1210 1210 38 28 1210 43 1210 31 45 1210 9 1210 1210 0 1210 1210 36 19 1210 17 9 1210 1210 1210 1210 1210 1210 1210 1210 1210 14 1210
14 1210 1210 1210 1210 1210 1210 1210 49 1210 29 1210 1210 1210 24 1210 1210 1210 1210 1210 1210 25 1210 31 35 54 1210 1210 43 1210 1210 1210 1210 41 1210 1210 41 8 1210 1210 23 1210 13 29 1210 1210 38 54 1210 1210 1210 25 1210 1210 60 21 1210 0 26 1210 1210 20 1210 1210 11 1210 1210 1210 1210 1210 1210 1210 10 1210 1210
1210 1210 30 1210 1210 1210 1210 1210 1210 1210 21 1210 1210 1210 24 1210 34 1210 1210 1210 1210 5 13 1210 12 1210 21 1210 1210 1210 1210 1210 1210 19 1210 1210 41 20 1210 1210 28 1210 35 1210 1210 1210 1210 1210 29 1210 39 22 21 1210 1210 30 1210 26 0 45 1210 23 1210 1210 17 1210 45 1210 1210 16 9 1210 19 1210 1210
1210 1210 15 37 35 10 1210 1210 1210 38 1210 1210 1210 23 1210 35 1210 1210 1210 1210 1210 1210 1210 1210 1210 1210 28 17 1210 1210 5 11 1210 29 1210 17 22 1210 1210 1210 34 18 1210 1210 1210 3 43 1210 17 1210 13 31 37 37 1210 1210 36 1210 45 0 51 1210 25 39 1210 16 1210 1210 19 1210 1210 14 1210 1210 1210
1210 1210 1210 15 49 1210 1210 36 1210 21 1210 33 1210 1210 1210 19 1210 28 31 1210 19 1210 1210 1210 1210 1210 1210 1210 1210 1210 1210 1210 1210 1210 1210 43 1210 1210 24 16 1210 1210 1210 1210 1210 1210 44 48 1210 1210 1210 1210 1210 26 1210 1210 19 1210 1210 51 0 1210 27 24 1210 1210 1210 1210 1210 1210 1210 1210 1210 26 1210
34 1210 1210 1210 1210 1210 1210 1210 1210 1210 11 1210 1210 1210 4 1210 1210 1210 1210 1210 1210 19 1210 1210 25 73 1210 1210 1210 1210 1210 1210 1210 1210 1210 1210 1210 13 1210 1210 1210 1210 33 1210 1210 1210 1210 1210 1210 1210 1210 37 1210 1210 1210 8 1210 20 23 1210 1210 0 1210 1210 22 1210 66 1210 1210 35 31 1210 23 1210 1210
1210 1210 39 12 29 34 1210 1210 1210 14 1210 1210 55 1210 1210 10 1210 46 31 1210 30 1210 1210 1210 1210 1210 1210 21 1210 1210 30 21 1210 1210 1210 24 28 1210 36 18 1210 28 1210 1210 52 26 40 1210 38 1210 27 46 1210 24 1210 1210 17 1210 1210 25 27 1210 0 25 1210 32 1210 1210 1210 1210 1210 32 1210 31 1210
1210 1210 1210 21 1210 1210 1210 15 1210 1210 1210 13 1210 1210 1210 1210 1210 24 1210 1210 40 1210 1210 1210 1210 1210 1210 1210 1210 1210 1210 1210 1210 1210 1210 25 24 1210 12 31 1210 1210 1210 1210 1210 1210 20 1210 1210 1210 31 1210 1210 3 1210 1210 9 1210 1210 39 24 1210 25 0 1210 1210 1210 1210 1210 1210 1210 1210 1210 6 1210
21 1210 35 1210 1210 1210 1210 1210 1210 1210 28 1210 1210 1210 25 1210 1210 1210 1210 1210 1210 18 29 1210 28 58 1210 1210 1210 1210 1210 1210 1210 30 1210 1210 34 10 1210 1210 17 1210 18 29 1210 1210 37 1210 31 1210 36 16 35 1210 1210 27 1210 11 17 1210 1210 22 1210 1210 0 1210 60 1210 1210 1210 25 1210 2 1210 1210
1210 33 1210 1210 26 13 1210 1210 1210 1210 1210 1210 25 21 1210 1210 26 1210 1210 37 1210 1210 1210 1210 1210 1210 1210 13 1210 33 1210 11 1210 1210 1210 1210 1210 1210 1210 1210 1210 6 1210 1210 22 13 1210 1210 1210 1210 1210 1210 1210 1210 1210 1210 1210 1210 1210 16 1210 1210 32 1210 1210 0 1210 26 25 1210 1210 3 1210 1210 32
1210 22 1210 1210 1210 1210 8 1210 1210 1210 59 1210 34 21 66 1210 21 1210 1210 3 1210 48 33 1210 42 1210 1210 1210 1210 23 1210 1210 21 1210 1210 1210 1210 65 1210 1210 1210 1210 1210 1210 35 1210 1210 1210 1210 1210 1210 1210 24 1210 1210 1210 1210 1210 45 1210 1210 66 1210 1210 60 1210 0 18 1210 32 36 38 1210 1210 12
1210 9 34 1210 48 26 19 1210 1210 1210 1210 1210 17 16 1210 1210 21 1210 1210 16 1210 1210 1210 1210 1210 1210 34 38 1210 10 32 37 33 1210 26 1210 1210 1210 1210 1210 1210 31 1210 1210 17 33 1210 1210 1210 1210 1210 1210 35 1210 1210 1210 1210 1210 1210 1210 1210 1210 1210 1210 1210 26 18 0 27 44 1210 26 1210 1210 18
1210 1210 8 1210 1210 13 1210 1210 1210 1210 1210 1210 1210 11 1210 1210 7 1210 1210 1210 1210 1210 1210 1210 1210 1210 10 1210 1210 1210 15 28 1210 12 2 1210 1210 1210 1210 1210 1210 1210 1210 1210 1210 19 1210 1210 13 1210 1210 28 18 1210 1210 1210 1210 1210 1210 19 1210 1210 1210 1210 1210 25 1210 27 0 1210 25 22 1210 1210 17
1210 1210 1210 1210 1210 1210 25 1210 1210 1210 28 1210 1210 34 1210 1210 28 1210 1210 31 1210 17 4 1210 11 1210 19 1210 1210 1210 1210 1210 11 18 1210 1210 1210 1210 1210 1210 1210 1210 1210 1210 1210 1210 1210 1210 1210 1210 1210 1210 11 1210 1210 1210 1210 1210 16 1210 1210 35 1210 1210 1210 1210 32 44 1210 0 8 1210 1210 1210 26
1210 1210 27 1210 1210 1210 1210 1210 1210 1210 27 1210 1210 1210 1210 1210 27 1210 1210 1210 1210 12 4 1210 12 1210 15 1210 1210 1210 1210 1210 16 13 25 1210 1210 29 1210 1210 1210 1210 1210 1210 1210 1210 1210 1210 27 1210 38 26 12 1210 1210 1210 1210 1210 9 1210 1210 31 1210 1210 25 1210 36 1210 25 8 0 1210 27 1210 28
1210 1210 23 1210 29 10 34 1210 1210 1210 1210 1210 26 19 1210 1210 23 1210 1210 35 1210 1210 1210 1210 1210 1210 33 14 1210 33 12 11 1210 1210 23 31 1210 1210 1210 1210 1210 8 1210 1210 24 11 1210 1210 1210 1210 1210 1210 40 1210 1210 1210 1210 1210 1210 14 1210 1210 32 1210 1210 3 38 26 22 1210 1210 0 1210 1210 30
19 1210 1210 1210 1210 1210 1210 1210 1210 1210 1210 1210 1210 1210 1210 1210 1210 1210 1210 1210 1210 20 1210 29 31 56 1210 1210 43 1210 1210 1210 1210 31 1210 38 33 11 1210 1210 16 1210 16 27 1210 1210 35 1210 31 1210 36 16 1210 50 1210 28 1210 10 19 1210 1210 23 1210 1210 2 1210 1210 1210 1210 1210 27 1210 0 1210 1210
1210 1210 1210 26 1210 1210 1210 10 1210 1210 1210 8 1210 1210 1210 1210 1210 19 1210 1210 44 1210 1210 1210 1210 1210 1210 1210 26 1210 1210 1210 1210 1210 1210 29 27 1210 8 1210 38 1210 1210 1210 1210 1210 18 25 1210 1210 1210 1210 1210 8 1210 1210 14 1210 1210 1210 26 1210 31 6 1210 1210 1210 1210 1210 1210 1210 1210 1210 0 1210
1210 26 25 1210 1210 24 4 1210 1210 1210 1210 1210 1210 12 1210 1210 10 1210 1210 9 1210 1210 27 1210 37 1210 19 1210 1210 27 1210 1210 15 20 15 1210 1210 1210 1210 1210 1210 38 1210 1210 34 32 1210 1210 1210 1210 1210 1210 17 1210 1210 1210 1210 1210 1210 1210 1210 1210 1210 1210 1210 32 12 18 17 26 28 30 1210 1210 0
EOF
